n_agents = 4;

% transfered from the photo1.dzn instance from the MZN benchmark
friends = [
{1,3,4}, % 01
{3,4},       % 02
{2,3},   % 03
{1},   % 04
];

enemies = [
{2,4}, % 01
{1,2},       % 02
{1},   % 03
{2,3},   % 04
];